Gurobi Optimizer version 9.1.2 build v9.1.2rc0 (linux64)
Thread count: 36 physical cores, 72 logical processors, using up to 32 threads
Optimize a model with 12 rows, 57 columns and 590 nonzeros
Model fingerprint: 0xf32eec78
Model has 47 quadratic constraints
Coefficient statistics:
  Matrix range     [2e-05, 3e+00]
  QMatrix range    [1e+00, 1e+00]
  QLMatrix range   [1e+00, 1e+00]
  Objective range  [8e-03, 7e-01]
  Bounds range     [1e+00, 1e+00]
  RHS range        [1e+00, 1e+00]
Presolve removed 9 rows and 0 columns

Continuous model is non-convex -- solving as a MIP.

Presolve removed 9 rows and 0 columns
Presolve time: 0.00s
Presolved: 189 rows, 57 columns, 443 nonzeros
Presolved model has 47 bilinear constraint(s)
Variable types: 57 continuous, 0 integer (0 binary)

Root relaxation: objective -1.743721e+00, 44 iterations, 0.00 seconds

    Nodes    |    Current Node    |     Objective Bounds      |     Work
 Expl Unexpl |  Obj  Depth IntInf | Incumbent    BestBd   Gap | It/Node Time

     0     0   -1.74372    0   38          -   -1.74372      -     -    0s
H    0     0                       0.6147548   -1.74372   384%     -    0s
     0     0   -1.64739    0    1    0.61475   -1.64739   368%     -    0s
H    0     0                      -1.6450460   -1.64739  0.14%     -    0s
     0     0     cutoff    0        -1.64505   -1.64505  0.00%     -    0s

Cutting planes:
  RLT: 25
  BQP: 3

Explored 1 nodes (76 simplex iterations) in 0.01 seconds
Thread count was 32 (of 72 available processors)

Solution count 2: -1.64505 0.614755 
No other solutions better than -1.64505

Optimal solution found (tolerance 1.00e-04)
Best objective -1.645045978473e+00, best bound -1.645045978473e+00, gap 0.0000%

User-callback calls 78, time in user-callback 0.00 sec
Gurobi Optimizer version 9.1.2 build v9.1.2rc0 (linux64)
Thread count: 36 physical cores, 72 logical processors, using up to 32 threads
Optimize a model with 24 rows, 120 columns and 2480 nonzeros
Model fingerprint: 0x30d327f7
Model has 100 quadratic constraints
Coefficient statistics:
  Matrix range     [8e-06, 4e+00]
  QMatrix range    [1e+00, 1e+00]
  QLMatrix range   [1e+00, 1e+00]
  Objective range  [4e-03, 1e+00]
  Bounds range     [1e+00, 1e+00]
  RHS range        [1e+00, 1e+00]
Presolve removed 16 rows and 0 columns

Continuous model is non-convex -- solving as a MIP.

Presolve removed 16 rows and 0 columns
Presolve time: 0.00s
Presolved: 408 rows, 120 columns, 1351 nonzeros
Presolved model has 100 bilinear constraint(s)
Variable types: 120 continuous, 0 integer (0 binary)

Root relaxation: objective -6.490064e+00, 120 iterations, 0.00 seconds

    Nodes    |    Current Node    |     Objective Bounds      |     Work
 Expl Unexpl |  Obj  Depth IntInf | Incumbent    BestBd   Gap | It/Node Time

     0     0   -6.49006    0  100          -   -6.49006      -     -    0s
H    0     0                       1.4161978   -6.49006   558%     -    0s
     0     0   -4.36166    0   90    1.41620   -4.36166   408%     -    0s
H    0     0                       0.0647498   -4.36166  6836%     -    0s
     0     0   -4.35947    0   90    0.06475   -4.35947  6833%     -    0s
     0     0   -3.93468    0   90    0.06475   -3.93468  6177%     -    0s
H    0     0                      -0.7766258   -3.93468   407%     -    0s
     0     0   -3.90720    0   90   -0.77663   -3.90720   403%     -    0s
     0     0   -3.82156    0   90   -0.77663   -3.82156   392%     -    0s
H    0     0                      -0.8676941   -3.82156   340%     -    0s
     0     0   -3.81677    0   90   -0.86769   -3.81677   340%     -    0s
     0     0   -3.78921    0  100   -0.86769   -3.78921   337%     -    0s
H    0     0                      -1.1359206   -3.78921   234%     -    0s
     0     0   -3.78422    0  100   -1.13592   -3.78422   233%     -    0s
     0     0   -3.77540    0  100   -1.13592   -3.77540   232%     -    0s
     0     0   -3.77209    0  100   -1.13592   -3.77209   232%     -    0s
     0     0   -3.77111    0  100   -1.13592   -3.77111   232%     -    0s
     0     0   -3.77066    0  100   -1.13592   -3.77066   232%     -    0s
     0     0   -3.76965    0  100   -1.13592   -3.76965   232%     -    0s
H    0     0                      -2.9868292   -3.76965  26.2%     -    0s
H    0     0                      -3.0781991   -3.76965  22.5%     -    0s
H    0     0                      -3.1156574   -3.76965  21.0%     -    0s
     0     2   -3.76965    0  100   -3.11566   -3.76965  21.0%     -    0s
*  633   269              24      -3.1381371   -3.39376  8.15%  20.9    0s
*  690   294              24      -3.1381563   -3.39376  8.15%  19.8    0s
*  694   294              27      -3.1385751   -3.39376  8.13%  19.7    0s
*  737   294              19      -3.1432177   -3.39376  7.97%  19.0    0s
*  819   294              29      -3.1502217   -3.39376  7.73%  17.7    0s
*  870   369              26      -3.1502635   -3.29754  4.68%  17.2    0s
*  871   369              26      -3.1503087   -3.29754  4.67%  17.2    0s
*  885   369              27      -3.1818835   -3.29754  3.63%  17.1    0s
* 1077   345              27      -3.1818835   -3.29754  3.63%  15.1    0s
* 1132   345              22      -3.1840400   -3.29754  3.56%  14.6    0s
* 1227   345              17      -3.1846632   -3.29754  3.54%  13.8    0s
* 1228   345              17      -3.1846728   -3.29754  3.54%  13.8    0s
* 1326   371              25      -3.1955914   -3.29754  3.19%  13.2    0s
* 1527   461              32      -3.1964486   -3.29754  3.16%  12.1    0s
* 1627   461              32      -3.1968111   -3.29754  3.15%  11.6    0s
* 1629   461              33      -3.1968806   -3.29754  3.15%  11.6    0s
* 1630   461              33      -3.1968821   -3.29754  3.15%  11.6    0s
* 1709   461              24      -3.1987700   -3.29754  3.09%  11.3    0s
* 1710   461              24      -3.1987720   -3.29754  3.09%  11.3    0s
* 1873   280              21      -3.1988804   -3.20334  0.14%  10.5    0s
* 1874   280              22      -3.1989418   -3.20334  0.14%  10.5    0s
* 1887   280              24      -3.1989629   -3.20334  0.14%  10.5    0s
* 1896   280              23      -3.2002126   -3.20334  0.10%  10.5    0s
* 1933   280              26      -3.2003659   -3.20334  0.09%  10.4    0s
* 2221    35              23      -3.2004537   -3.20240  0.06%   9.2    0s
* 2223    35              24      -3.2004549   -3.20240  0.06%   9.2    0s
* 2515     4              26      -3.2004592   -3.20058  0.00%   8.3    0s
* 2516     4              26      -3.2004607   -3.20058  0.00%   8.3    0s
* 2521     4              25      -3.2004624   -3.20058  0.00%   8.3    0s
* 2523     4              26      -3.2004624   -3.20058  0.00%   8.2    0s

Cutting planes:
  RLT: 51
  BQP: 10
  PSD: 4

Explored 2552 nodes (21244 simplex iterations) in 0.59 seconds
Thread count was 32 (of 72 available processors)

Solution count 10: -3.20046 -3.20046 -3.20046 ... -3.19894

Optimal solution found (tolerance 1.00e-04)
Best objective -3.200462436675e+00, best bound -3.200580695655e+00, gap 0.0037%

User-callback calls 5428, time in user-callback 0.00 sec



objective value: -3.2004624366751404
objective bound: -3.2005806956552245
x_opt: [0.0, 1.0, 1.0, 0.0, 1.0, 0.3036938667650913, 0.0, 0.0, 1.0, 0.3912683311795237, 0.0, 0.060712760349618485, 0.0, 1.0, 0.0, 0.8835487464975229, 1.0, 0.9030191185411532, 0.0, 1.0]
GUROBI solution time: 0.586594820022583




